instances/knapsack/discrete_knapsack_uncertainty/knapsack_110_9.lp
\ Model knapsack_110_9
\ LP format - for model browsing. Use MPS format to capture full model detail.
\ Signature: 0x1c7a262dccd0e095
Minimize
  - 9 x[0] - x[1] - 19 x[2] - 35 x[3] - 72 x[4] - 80 x[5] - 4 x[6] - 90 x[7]
   - 69 x[8] - 45 x[9] - 94 x[10] - 2 x[11] - 86 x[12] - 53 x[13]
   - 42 x[14] - 75 x[15] - 65 x[16] - 69 x[17] - 49 x[18] - 32 x[19]
   - 76 x[20] - 90 x[21] - 59 x[22] - 67 x[23] - 8 x[24] - 93 x[25]
   - 79 x[26] - 10 x[27] - 61 x[28] - 59 x[29] - 76 x[30] - 79 x[31]
   - 63 x[32] - 14 x[33] - 46 x[34] - 68 x[35] - 76 x[36] - 2 x[37]
   - 45 x[38] - 62 x[39] - 79 x[40] - 56 x[41] - 4 x[42] - 98 x[43]
   - 57 x[44] - 90 x[45] - 27 x[46] - 19 x[47] - 43 x[48] - 88 x[49]
   - 62 x[50] - 85 x[51] - 94 x[52] - 44 x[53] - 83 x[54] - x[55]
   - 21 x[56] - 87 x[57] - 95 x[58] - 78 x[59] - 19 x[60] - 13 x[61]
   - 40 x[62] - 44 x[63] - 33 x[64] - 4 x[65] - 56 x[66] - 100 x[67]
   - 19 x[68] - 60 x[69] - 44 x[70] - 62 x[71] - 84 x[72] - 36 x[73]
   - 57 x[74] - 81 x[75] - 81 x[76] - 40 x[77] - 91 x[78] - 94 x[79]
   - 62 x[80] - 9 x[81] - 76 x[82] - 49 x[83] - 40 x[84] - 51 x[85]
   - 29 x[86] - 94 x[87] - 63 x[88] - 21 x[89] - 65 x[90] - 96 x[91]
   - 20 x[92] - 19 x[93] - 75 x[94] - 29 x[95] - 56 x[96] - 99 x[97]
   - 47 x[98] - 79 x[99] - 67 x[100] - 32 x[101] - 29 x[102] - 76 x[103]
   - 54 x[104] - 30 x[105] - 29 x[106] - 99 x[107] - 81 x[108] - 75 x[109]
Subject To
 primal_upper: 8 x[0] + 57 x[1] + 83 x[2] + 52 x[3] + 45 x[4] + 18 x[5]
   + 58 x[6] + 60 x[7] + 2 x[8] + 27 x[9] + 32 x[10] + 24 x[11] + 61 x[12]
   + 65 x[13] + 81 x[14] + 57 x[15] + 30 x[16] + 73 x[17] + 30 x[18]
   + 63 x[19] + 6 x[20] + 92 x[21] + 33 x[22] + 11 x[23] + 53 x[24]
   + 37 x[25] + 27 x[26] + 24 x[27] + 86 x[28] + 96 x[29] + 26 x[30]
   + 24 x[31] + 88 x[32] + 26 x[33] + 29 x[34] + 82 x[35] + 69 x[36]
   + 37 x[37] + 5 x[38] + 87 x[39] + 44 x[40] + 10 x[41] + 83 x[42]
   + 26 x[43] + 88 x[44] + 55 x[45] + 98 x[46] + 70 x[47] + 32 x[48]
   + 5 x[49] + 55 x[50] + 69 x[51] + 22 x[52] + 61 x[53] + 77 x[54]
   + 24 x[55] + 34 x[56] + 39 x[57] + 45 x[58] + 39 x[59] + 17 x[60]
   + 27 x[61] + 4 x[62] + 27 x[63] + 64 x[64] + 13 x[65] + 89 x[66]
   + 39 x[67] + 5 x[68] + 30 x[69] + 74 x[70] + 66 x[71] + 67 x[72]
   + 8 x[73] + 96 x[74] + x[75] + 99 x[76] + 96 x[77] + 29 x[78] + 71 x[79]
   + 50 x[80] + 94 x[81] + 51 x[82] + 2 x[83] + 94 x[84] + 90 x[85]
   + 16 x[86] + 57 x[87] + 39 x[88] + 16 x[89] + x[90] + 69 x[91]
   + 57 x[92] + 76 x[93] + 61 x[94] + 2 x[95] + 82 x[96] + 81 x[97]
   + 61 x[98] + 49 x[99] + 10 x[100] + 5 x[101] + 59 x[102] + 9 x[103]
   + 54 x[104] + 83 x[105] + 40 x[106] + 59 x[107] + 83 x[108] + 78 x[109]
   + 0.8 r[0] + 5.7 r[1] + 8.3 r[2] + 5.2 r[3] + 4.5 r[4] + 1.8 r[5]
   + 5.8 r[6] + 6 r[7] + 0.2 r[8] + 2.7 r[9] + 3.2 r[10] + 2.4 r[11]
   + 6.1 r[12] + 6.5 r[13] + 8.1 r[14] + 5.7 r[15] + 3 r[16] + 7.3 r[17]
   + 3 r[18] + 6.3 r[19] + 0.6 r[20] + 9.2 r[21] + 3.3 r[22] + 1.1 r[23]
   + 5.3 r[24] + 3.7 r[25] + 2.7 r[26] + 2.4 r[27] + 8.6 r[28] + 9.6 r[29]
   + 2.6 r[30] + 2.4 r[31] + 8.8 r[32] + 2.6 r[33] + 2.9 r[34] + 8.2 r[35]
   + 6.9 r[36] + 3.7 r[37] + 0.5 r[38] + 8.7 r[39] + 4.4 r[40] + r[41]
   + 8.3 r[42] + 2.6 r[43] + 8.8 r[44] + 5.5 r[45] + 9.8 r[46] + 7 r[47]
   + 3.2 r[48] + 0.5 r[49] + 5.5 r[50] + 6.9 r[51] + 2.2 r[52] + 6.1 r[53]
   + 7.7 r[54] + 2.4 r[55] + 3.4 r[56] + 3.9 r[57] + 4.5 r[58] + 3.9 r[59]
   + 1.7 r[60] + 2.7 r[61] + 0.4 r[62] + 2.7 r[63] + 6.4 r[64] + 1.3 r[65]
   + 8.9 r[66] + 3.9 r[67] + 0.5 r[68] + 3 r[69] + 7.4 r[70] + 6.6 r[71]
   + 6.7 r[72] + 0.8 r[73] + 9.6 r[74] + 0.1 r[75] + 9.9 r[76] + 9.6 r[77]
   + 2.9 r[78] + 7.1 r[79] + 5 r[80] + 9.4 r[81] + 5.1 r[82] + 0.2 r[83]
   + 9.4 r[84] + 9 r[85] + 1.6 r[86] + 5.7 r[87] + 3.9 r[88] + 1.6 r[89]
   + 0.1 r[90] + 6.9 r[91] + 5.7 r[92] + 7.6 r[93] + 6.1 r[94] + 0.2 r[95]
   + 8.2 r[96] + 8.1 r[97] + 6.1 r[98] + 4.9 r[99] + r[100] + 0.5 r[101]
   + 5.9 r[102] + 0.9 r[103] + 5.4 r[104] + 8.3 r[105] + 4 r[106]
   + 5.9 r[107] + 8.3 r[108] + 7.8 r[109] <= 503
 primal_lower: 4.303155583376727 x[0] + 1.30263014222557 x[1]
   + 2.376956218430275 x[2] + 0.9480078928404495 x[3]
   + 1.79318980145401 x[4] + 0.83099722015585 x[5]
   + 0.6146173997133629 x[6] + 0.4939910258483081 x[7]
   + 2.613655611385108 x[8] + 1.1687030048837 x[9]
   + 4.501963176949054 x[10] + 3.908655310585099 x[11]
   + 3.885527375482106 x[12] + 2.501698106305644 x[13]
   + 0.3373022530782163 x[14] + 1.41294914657208 x[15]
   + 1.973186916680327 x[16] + 2.478105951870248 x[17]
   + 1.763697083329693 x[18] + 1.582888326725762 x[19]
   + 0.7601921620995522 x[20] + 0.035498373425051 x[21]
   + 3.534154819665552 x[22] + 3.635905537847105 x[23]
   + 4.044866916421983 x[24] + 0.7523201976548235 x[25]
   + 1.552221538633713 x[26] + 3.926065982652413 x[27]
   + 1.090045903789871 x[28] + 0.3491464326736127 x[29]
   + 4.482520232205717 x[30] + 3.637696925434045 x[31]
   + 0.9227425832520464 x[32] + 0.349098513574805 x[33]
   + 3.615584525174081 x[34] + 2.887156057453285 x[35]
   + 1.218219306869366 x[36] + 4.127337636967755 x[37]
   + 1.407071179979609 x[38] + 0.9554180263043356 x[39]
   + 3.939234212898795 x[40] + 4.152679729679349 x[41]
   + 2.36873585452633 x[42] + 2.037064910736868 x[43]
   + 3.767635372123489 x[44] + 0.0356154101272513 x[45]
   + 3.24137763781926 x[46] + 2.779612526483675 x[47]
   + 1.242835211266633 x[48] + 3.119029411712698 x[49]
   + 2.444912076900058 x[50] + 3.774358418724213 x[51]
   + 2.175737831149261 x[52] + 3.277976810461846 x[53]
   + 3.131926351636489 x[54] + 0.00598994543762813 x[55]
   + 4.582467911616732 x[56] + 4.018107206309102 x[57]
   + 1.822321933698987 x[58] + 4.163069183917012 x[59]
   + 2.517660923818052 x[60] + 2.810502494444477 x[61]
   + 2.068555816484702 x[62] + 3.079367108830576 x[63]
   + 1.642450919194274 x[64] + 4.473094289747184 x[65]
   + 1.733742027662539 x[66] + 4.256945723049888 x[67]
   + 3.419784004369173 x[68] + 1.13430172350268 x[69]
   + 3.017254345963698 x[70] + 2.43901202908237 x[71]
   + 3.087002277243882 x[72] + 0.2209407244497361 x[73]
   + 2.29586115886585 x[74] + 4.07645320716545 x[75]
   + 0.3378432358378946 x[76] + 0.0377255411838996 x[77]
   + 1.501207764729156 x[78] + 4.490443870783127 x[79]
   + 1.225402869233387 x[80] + 3.960395652142466 x[81]
   + 1.120291122894322 x[82] + 3.252704527627482 x[83]
   + 3.929282418226538 x[84] + 3.800630972902311 x[85]
   + 3.71107124922071 x[86] + 1.47896614072619 x[87]
   + 3.871387122767907 x[88] + 0.0589600049927019 x[89]
   + 1.536437089972414 x[90] + 2.336857786280032 x[91]
   + 0.2356873856069941 x[92] + 2.508715835110022 x[93]
   + 1.875565075975954 x[94] + 3.2689187781401 x[95]
   + 0.0871355754121742 x[96] + 2.247498410210182 x[97]
   + 1.26910046818745 x[98] + 4.003310535883473 x[99]
   + 2.797021209951114 x[100] + 3.326143031730738 x[101]
   + 2.356502453659811 x[102] + 4.153493220824494 x[103]
   + 3.983801044462218 x[104] + 4.697147097094645 x[105]
   + 3.713585683316751 x[106] + 3.164499954202001 x[107]
   + 4.175902827087912 x[108] + 2.696021191999739 x[109] + 93 u[0]
   + 69 u[1] + 19 u[2] + 32 u[3] + 97 u[4] + 83 u[5] + 50 u[6] + 57 u[7]
   + 26 u[8] + 19 u[9] + 61 u[10] + 56 u[11] + 33 u[12] + 97 u[13]
   + 14 u[14] + 66 u[15] + 10 u[16] + 69 u[17] + 26 u[18] + 51 u[19]
   + 6 u[20] + 89 u[21] + 65 u[22] + 76 u[23] + 66 u[24] + 37 u[25]
   + 91 u[26] + 49 u[27] + 19 u[28] + 100 u[29] + 75 u[30] + 61 u[31]
   + 45 u[32] + 70 u[33] + 41 u[34] + 22 u[35] + 69 u[36] + 62 u[37]
   + 97 u[38] + 16 u[39] + 24 u[40] + 79 u[41] + 59 u[42] + 95 u[43]
   + 84 u[44] + 96 u[45] + 3 u[46] + 51 u[47] + 48 u[48] + 17 u[49]
   + 76 u[50] + 65 u[51] + 18 u[52] + 77 u[53] + 70 u[54] + 25 u[55]
   + 6 u[56] + 20 u[57] + 53 u[58] + 59 u[59] + 22 u[60] + 36 u[61]
   + 61 u[62] + 32 u[63] + 61 u[64] + 49 u[65] + 74 u[66] + 80 u[67]
   + 41 u[68] + 91 u[69] + 31 u[70] + 55 u[71] + 43 u[72] + 84 u[73]
   + 61 u[74] + 78 u[75] + 20 u[76] + 40 u[77] + 54 u[78] + 72 u[79]
   + 27 u[80] + 31 u[81] + 48 u[82] + 91 u[83] + 67 u[84] + 99 u[85]
   + 49 u[86] + 13 u[87] + 19 u[88] + 52 u[89] + 6 u[90] + 38 u[91]
   + 50 u[92] + 17 u[93] + 21 u[94] + 38 u[95] + 6 u[96] + 10 u[97]
   + 21 u[98] + 29 u[99] + 58 u[100] + 17 u[101] + 55 u[102] + 65 u[103]
   + 62 u[104] + 47 u[105] + 56 u[106] + 8 u[107] + 92 u[108] + 78 u[109]
   <= 81580
 mccormick1[0]: - u[0] + r[0] <= 0
 mccormick1[1]: - u[1] + r[1] <= 0
 mccormick1[2]: - u[2] + r[2] <= 0
 mccormick1[3]: - u[3] + r[3] <= 0
 mccormick1[4]: - u[4] + r[4] <= 0
 mccormick1[5]: - u[5] + r[5] <= 0
 mccormick1[6]: - u[6] + r[6] <= 0
 mccormick1[7]: - u[7] + r[7] <= 0
 mccormick1[8]: - u[8] + r[8] <= 0
 mccormick1[9]: - u[9] + r[9] <= 0
 mccormick1[10]: - u[10] + r[10] <= 0
 mccormick1[11]: - u[11] + r[11] <= 0
 mccormick1[12]: - u[12] + r[12] <= 0
 mccormick1[13]: - u[13] + r[13] <= 0
 mccormick1[14]: - u[14] + r[14] <= 0
 mccormick1[15]: - u[15] + r[15] <= 0
 mccormick1[16]: - u[16] + r[16] <= 0
 mccormick1[17]: - u[17] + r[17] <= 0
 mccormick1[18]: - u[18] + r[18] <= 0
 mccormick1[19]: - u[19] + r[19] <= 0
 mccormick1[20]: - u[20] + r[20] <= 0
 mccormick1[21]: - u[21] + r[21] <= 0
 mccormick1[22]: - u[22] + r[22] <= 0
 mccormick1[23]: - u[23] + r[23] <= 0
 mccormick1[24]: - u[24] + r[24] <= 0
 mccormick1[25]: - u[25] + r[25] <= 0
 mccormick1[26]: - u[26] + r[26] <= 0
 mccormick1[27]: - u[27] + r[27] <= 0
 mccormick1[28]: - u[28] + r[28] <= 0
 mccormick1[29]: - u[29] + r[29] <= 0
 mccormick1[30]: - u[30] + r[30] <= 0
 mccormick1[31]: - u[31] + r[31] <= 0
 mccormick1[32]: - u[32] + r[32] <= 0
 mccormick1[33]: - u[33] + r[33] <= 0
 mccormick1[34]: - u[34] + r[34] <= 0
 mccormick1[35]: - u[35] + r[35] <= 0
 mccormick1[36]: - u[36] + r[36] <= 0
 mccormick1[37]: - u[37] + r[37] <= 0
 mccormick1[38]: - u[38] + r[38] <= 0
 mccormick1[39]: - u[39] + r[39] <= 0
 mccormick1[40]: - u[40] + r[40] <= 0
 mccormick1[41]: - u[41] + r[41] <= 0
 mccormick1[42]: - u[42] + r[42] <= 0
 mccormick1[43]: - u[43] + r[43] <= 0
 mccormick1[44]: - u[44] + r[44] <= 0
 mccormick1[45]: - u[45] + r[45] <= 0
 mccormick1[46]: - u[46] + r[46] <= 0
 mccormick1[47]: - u[47] + r[47] <= 0
 mccormick1[48]: - u[48] + r[48] <= 0
 mccormick1[49]: - u[49] + r[49] <= 0
 mccormick1[50]: - u[50] + r[50] <= 0
 mccormick1[51]: - u[51] + r[51] <= 0
 mccormick1[52]: - u[52] + r[52] <= 0
 mccormick1[53]: - u[53] + r[53] <= 0
 mccormick1[54]: - u[54] + r[54] <= 0
 mccormick1[55]: - u[55] + r[55] <= 0
 mccormick1[56]: - u[56] + r[56] <= 0
 mccormick1[57]: - u[57] + r[57] <= 0
 mccormick1[58]: - u[58] + r[58] <= 0
 mccormick1[59]: - u[59] + r[59] <= 0
 mccormick1[60]: - u[60] + r[60] <= 0
 mccormick1[61]: - u[61] + r[61] <= 0
 mccormick1[62]: - u[62] + r[62] <= 0
 mccormick1[63]: - u[63] + r[63] <= 0
 mccormick1[64]: - u[64] + r[64] <= 0
 mccormick1[65]: - u[65] + r[65] <= 0
 mccormick1[66]: - u[66] + r[66] <= 0
 mccormick1[67]: - u[67] + r[67] <= 0
 mccormick1[68]: - u[68] + r[68] <= 0
 mccormick1[69]: - u[69] + r[69] <= 0
 mccormick1[70]: - u[70] + r[70] <= 0
 mccormick1[71]: - u[71] + r[71] <= 0
 mccormick1[72]: - u[72] + r[72] <= 0
 mccormick1[73]: - u[73] + r[73] <= 0
 mccormick1[74]: - u[74] + r[74] <= 0
 mccormick1[75]: - u[75] + r[75] <= 0
 mccormick1[76]: - u[76] + r[76] <= 0
 mccormick1[77]: - u[77] + r[77] <= 0
 mccormick1[78]: - u[78] + r[78] <= 0
 mccormick1[79]: - u[79] + r[79] <= 0
 mccormick1[80]: - u[80] + r[80] <= 0
 mccormick1[81]: - u[81] + r[81] <= 0
 mccormick1[82]: - u[82] + r[82] <= 0
 mccormick1[83]: - u[83] + r[83] <= 0
 mccormick1[84]: - u[84] + r[84] <= 0
 mccormick1[85]: - u[85] + r[85] <= 0
 mccormick1[86]: - u[86] + r[86] <= 0
 mccormick1[87]: - u[87] + r[87] <= 0
 mccormick1[88]: - u[88] + r[88] <= 0
 mccormick1[89]: - u[89] + r[89] <= 0
 mccormick1[90]: - u[90] + r[90] <= 0
 mccormick1[91]: - u[91] + r[91] <= 0
 mccormick1[92]: - u[92] + r[92] <= 0
 mccormick1[93]: - u[93] + r[93] <= 0
 mccormick1[94]: - u[94] + r[94] <= 0
 mccormick1[95]: - u[95] + r[95] <= 0
 mccormick1[96]: - u[96] + r[96] <= 0
 mccormick1[97]: - u[97] + r[97] <= 0
 mccormick1[98]: - u[98] + r[98] <= 0
 mccormick1[99]: - u[99] + r[99] <= 0
 mccormick1[100]: - u[100] + r[100] <= 0
 mccormick1[101]: - u[101] + r[101] <= 0
 mccormick1[102]: - u[102] + r[102] <= 0
 mccormick1[103]: - u[103] + r[103] <= 0
 mccormick1[104]: - u[104] + r[104] <= 0
 mccormick1[105]: - u[105] + r[105] <= 0
 mccormick1[106]: - u[106] + r[106] <= 0
 mccormick1[107]: - u[107] + r[107] <= 0
 mccormick1[108]: - u[108] + r[108] <= 0
 mccormick1[109]: - u[109] + r[109] <= 0
 mccormick2[0]: - x[0] + r[0] <= 0
 mccormick2[1]: - x[1] + r[1] <= 0
 mccormick2[2]: - x[2] + r[2] <= 0
 mccormick2[3]: - x[3] + r[3] <= 0
 mccormick2[4]: - x[4] + r[4] <= 0
 mccormick2[5]: - x[5] + r[5] <= 0
 mccormick2[6]: - x[6] + r[6] <= 0
 mccormick2[7]: - x[7] + r[7] <= 0
 mccormick2[8]: - x[8] + r[8] <= 0
 mccormick2[9]: - x[9] + r[9] <= 0
 mccormick2[10]: - x[10] + r[10] <= 0
 mccormick2[11]: - x[11] + r[11] <= 0
 mccormick2[12]: - x[12] + r[12] <= 0
 mccormick2[13]: - x[13] + r[13] <= 0
 mccormick2[14]: - x[14] + r[14] <= 0
 mccormick2[15]: - x[15] + r[15] <= 0
 mccormick2[16]: - x[16] + r[16] <= 0
 mccormick2[17]: - x[17] + r[17] <= 0
 mccormick2[18]: - x[18] + r[18] <= 0
 mccormick2[19]: - x[19] + r[19] <= 0
 mccormick2[20]: - x[20] + r[20] <= 0
 mccormick2[21]: - x[21] + r[21] <= 0
 mccormick2[22]: - x[22] + r[22] <= 0
 mccormick2[23]: - x[23] + r[23] <= 0
 mccormick2[24]: - x[24] + r[24] <= 0
 mccormick2[25]: - x[25] + r[25] <= 0
 mccormick2[26]: - x[26] + r[26] <= 0
 mccormick2[27]: - x[27] + r[27] <= 0
 mccormick2[28]: - x[28] + r[28] <= 0
 mccormick2[29]: - x[29] + r[29] <= 0
 mccormick2[30]: - x[30] + r[30] <= 0
 mccormick2[31]: - x[31] + r[31] <= 0
 mccormick2[32]: - x[32] + r[32] <= 0
 mccormick2[33]: - x[33] + r[33] <= 0
 mccormick2[34]: - x[34] + r[34] <= 0
 mccormick2[35]: - x[35] + r[35] <= 0
 mccormick2[36]: - x[36] + r[36] <= 0
 mccormick2[37]: - x[37] + r[37] <= 0
 mccormick2[38]: - x[38] + r[38] <= 0
 mccormick2[39]: - x[39] + r[39] <= 0
 mccormick2[40]: - x[40] + r[40] <= 0
 mccormick2[41]: - x[41] + r[41] <= 0
 mccormick2[42]: - x[42] + r[42] <= 0
 mccormick2[43]: - x[43] + r[43] <= 0
 mccormick2[44]: - x[44] + r[44] <= 0
 mccormick2[45]: - x[45] + r[45] <= 0
 mccormick2[46]: - x[46] + r[46] <= 0
 mccormick2[47]: - x[47] + r[47] <= 0
 mccormick2[48]: - x[48] + r[48] <= 0
 mccormick2[49]: - x[49] + r[49] <= 0
 mccormick2[50]: - x[50] + r[50] <= 0
 mccormick2[51]: - x[51] + r[51] <= 0
 mccormick2[52]: - x[52] + r[52] <= 0
 mccormick2[53]: - x[53] + r[53] <= 0
 mccormick2[54]: - x[54] + r[54] <= 0
 mccormick2[55]: - x[55] + r[55] <= 0
 mccormick2[56]: - x[56] + r[56] <= 0
 mccormick2[57]: - x[57] + r[57] <= 0
 mccormick2[58]: - x[58] + r[58] <= 0
 mccormick2[59]: - x[59] + r[59] <= 0
 mccormick2[60]: - x[60] + r[60] <= 0
 mccormick2[61]: - x[61] + r[61] <= 0
 mccormick2[62]: - x[62] + r[62] <= 0
 mccormick2[63]: - x[63] + r[63] <= 0
 mccormick2[64]: - x[64] + r[64] <= 0
 mccormick2[65]: - x[65] + r[65] <= 0
 mccormick2[66]: - x[66] + r[66] <= 0
 mccormick2[67]: - x[67] + r[67] <= 0
 mccormick2[68]: - x[68] + r[68] <= 0
 mccormick2[69]: - x[69] + r[69] <= 0
 mccormick2[70]: - x[70] + r[70] <= 0
 mccormick2[71]: - x[71] + r[71] <= 0
 mccormick2[72]: - x[72] + r[72] <= 0
 mccormick2[73]: - x[73] + r[73] <= 0
 mccormick2[74]: - x[74] + r[74] <= 0
 mccormick2[75]: - x[75] + r[75] <= 0
 mccormick2[76]: - x[76] + r[76] <= 0
 mccormick2[77]: - x[77] + r[77] <= 0
 mccormick2[78]: - x[78] + r[78] <= 0
 mccormick2[79]: - x[79] + r[79] <= 0
 mccormick2[80]: - x[80] + r[80] <= 0
 mccormick2[81]: - x[81] + r[81] <= 0
 mccormick2[82]: - x[82] + r[82] <= 0
 mccormick2[83]: - x[83] + r[83] <= 0
 mccormick2[84]: - x[84] + r[84] <= 0
 mccormick2[85]: - x[85] + r[85] <= 0
 mccormick2[86]: - x[86] + r[86] <= 0
 mccormick2[87]: - x[87] + r[87] <= 0
 mccormick2[88]: - x[88] + r[88] <= 0
 mccormick2[89]: - x[89] + r[89] <= 0
 mccormick2[90]: - x[90] + r[90] <= 0
 mccormick2[91]: - x[91] + r[91] <= 0
 mccormick2[92]: - x[92] + r[92] <= 0
 mccormick2[93]: - x[93] + r[93] <= 0
 mccormick2[94]: - x[94] + r[94] <= 0
 mccormick2[95]: - x[95] + r[95] <= 0
 mccormick2[96]: - x[96] + r[96] <= 0
 mccormick2[97]: - x[97] + r[97] <= 0
 mccormick2[98]: - x[98] + r[98] <= 0
 mccormick2[99]: - x[99] + r[99] <= 0
 mccormick2[100]: - x[100] + r[100] <= 0
 mccormick2[101]: - x[101] + r[101] <= 0
 mccormick2[102]: - x[102] + r[102] <= 0
 mccormick2[103]: - x[103] + r[103] <= 0
 mccormick2[104]: - x[104] + r[104] <= 0
 mccormick2[105]: - x[105] + r[105] <= 0
 mccormick2[106]: - x[106] + r[106] <= 0
 mccormick2[107]: - x[107] + r[107] <= 0
 mccormick2[108]: - x[108] + r[108] <= 0
 mccormick2[109]: - x[109] + r[109] <= 0
 mccormick3[0]: x[0] + u[0] - r[0] <= 1
 mccormick3[1]: x[1] + u[1] - r[1] <= 1
 mccormick3[2]: x[2] + u[2] - r[2] <= 1
 mccormick3[3]: x[3] + u[3] - r[3] <= 1
 mccormick3[4]: x[4] + u[4] - r[4] <= 1
 mccormick3[5]: x[5] + u[5] - r[5] <= 1
 mccormick3[6]: x[6] + u[6] - r[6] <= 1
 mccormick3[7]: x[7] + u[7] - r[7] <= 1
 mccormick3[8]: x[8] + u[8] - r[8] <= 1
 mccormick3[9]: x[9] + u[9] - r[9] <= 1
 mccormick3[10]: x[10] + u[10] - r[10] <= 1
 mccormick3[11]: x[11] + u[11] - r[11] <= 1
 mccormick3[12]: x[12] + u[12] - r[12] <= 1
 mccormick3[13]: x[13] + u[13] - r[13] <= 1
 mccormick3[14]: x[14] + u[14] - r[14] <= 1
 mccormick3[15]: x[15] + u[15] - r[15] <= 1
 mccormick3[16]: x[16] + u[16] - r[16] <= 1
 mccormick3[17]: x[17] + u[17] - r[17] <= 1
 mccormick3[18]: x[18] + u[18] - r[18] <= 1
 mccormick3[19]: x[19] + u[19] - r[19] <= 1
 mccormick3[20]: x[20] + u[20] - r[20] <= 1
 mccormick3[21]: x[21] + u[21] - r[21] <= 1
 mccormick3[22]: x[22] + u[22] - r[22] <= 1
 mccormick3[23]: x[23] + u[23] - r[23] <= 1
 mccormick3[24]: x[24] + u[24] - r[24] <= 1
 mccormick3[25]: x[25] + u[25] - r[25] <= 1
 mccormick3[26]: x[26] + u[26] - r[26] <= 1
 mccormick3[27]: x[27] + u[27] - r[27] <= 1
 mccormick3[28]: x[28] + u[28] - r[28] <= 1
 mccormick3[29]: x[29] + u[29] - r[29] <= 1
 mccormick3[30]: x[30] + u[30] - r[30] <= 1
 mccormick3[31]: x[31] + u[31] - r[31] <= 1
 mccormick3[32]: x[32] + u[32] - r[32] <= 1
 mccormick3[33]: x[33] + u[33] - r[33] <= 1
 mccormick3[34]: x[34] + u[34] - r[34] <= 1
 mccormick3[35]: x[35] + u[35] - r[35] <= 1
 mccormick3[36]: x[36] + u[36] - r[36] <= 1
 mccormick3[37]: x[37] + u[37] - r[37] <= 1
 mccormick3[38]: x[38] + u[38] - r[38] <= 1
 mccormick3[39]: x[39] + u[39] - r[39] <= 1
 mccormick3[40]: x[40] + u[40] - r[40] <= 1
 mccormick3[41]: x[41] + u[41] - r[41] <= 1
 mccormick3[42]: x[42] + u[42] - r[42] <= 1
 mccormick3[43]: x[43] + u[43] - r[43] <= 1
 mccormick3[44]: x[44] + u[44] - r[44] <= 1
 mccormick3[45]: x[45] + u[45] - r[45] <= 1
 mccormick3[46]: x[46] + u[46] - r[46] <= 1
 mccormick3[47]: x[47] + u[47] - r[47] <= 1
 mccormick3[48]: x[48] + u[48] - r[48] <= 1
 mccormick3[49]: x[49] + u[49] - r[49] <= 1
 mccormick3[50]: x[50] + u[50] - r[50] <= 1
 mccormick3[51]: x[51] + u[51] - r[51] <= 1
 mccormick3[52]: x[52] + u[52] - r[52] <= 1
 mccormick3[53]: x[53] + u[53] - r[53] <= 1
 mccormick3[54]: x[54] + u[54] - r[54] <= 1
 mccormick3[55]: x[55] + u[55] - r[55] <= 1
 mccormick3[56]: x[56] + u[56] - r[56] <= 1
 mccormick3[57]: x[57] + u[57] - r[57] <= 1
 mccormick3[58]: x[58] + u[58] - r[58] <= 1
 mccormick3[59]: x[59] + u[59] - r[59] <= 1
 mccormick3[60]: x[60] + u[60] - r[60] <= 1
 mccormick3[61]: x[61] + u[61] - r[61] <= 1
 mccormick3[62]: x[62] + u[62] - r[62] <= 1
 mccormick3[63]: x[63] + u[63] - r[63] <= 1
 mccormick3[64]: x[64] + u[64] - r[64] <= 1
 mccormick3[65]: x[65] + u[65] - r[65] <= 1
 mccormick3[66]: x[66] + u[66] - r[66] <= 1
 mccormick3[67]: x[67] + u[67] - r[67] <= 1
 mccormick3[68]: x[68] + u[68] - r[68] <= 1
 mccormick3[69]: x[69] + u[69] - r[69] <= 1
 mccormick3[70]: x[70] + u[70] - r[70] <= 1
 mccormick3[71]: x[71] + u[71] - r[71] <= 1
 mccormick3[72]: x[72] + u[72] - r[72] <= 1
 mccormick3[73]: x[73] + u[73] - r[73] <= 1
 mccormick3[74]: x[74] + u[74] - r[74] <= 1
 mccormick3[75]: x[75] + u[75] - r[75] <= 1
 mccormick3[76]: x[76] + u[76] - r[76] <= 1
 mccormick3[77]: x[77] + u[77] - r[77] <= 1
 mccormick3[78]: x[78] + u[78] - r[78] <= 1
 mccormick3[79]: x[79] + u[79] - r[79] <= 1
 mccormick3[80]: x[80] + u[80] - r[80] <= 1
 mccormick3[81]: x[81] + u[81] - r[81] <= 1
 mccormick3[82]: x[82] + u[82] - r[82] <= 1
 mccormick3[83]: x[83] + u[83] - r[83] <= 1
 mccormick3[84]: x[84] + u[84] - r[84] <= 1
 mccormick3[85]: x[85] + u[85] - r[85] <= 1
 mccormick3[86]: x[86] + u[86] - r[86] <= 1
 mccormick3[87]: x[87] + u[87] - r[87] <= 1
 mccormick3[88]: x[88] + u[88] - r[88] <= 1
 mccormick3[89]: x[89] + u[89] - r[89] <= 1
 mccormick3[90]: x[90] + u[90] - r[90] <= 1
 mccormick3[91]: x[91] + u[91] - r[91] <= 1
 mccormick3[92]: x[92] + u[92] - r[92] <= 1
 mccormick3[93]: x[93] + u[93] - r[93] <= 1
 mccormick3[94]: x[94] + u[94] - r[94] <= 1
 mccormick3[95]: x[95] + u[95] - r[95] <= 1
 mccormick3[96]: x[96] + u[96] - r[96] <= 1
 mccormick3[97]: x[97] + u[97] - r[97] <= 1
 mccormick3[98]: x[98] + u[98] - r[98] <= 1
 mccormick3[99]: x[99] + u[99] - r[99] <= 1
 mccormick3[100]: x[100] + u[100] - r[100] <= 1
 mccormick3[101]: x[101] + u[101] - r[101] <= 1
 mccormick3[102]: x[102] + u[102] - r[102] <= 1
 mccormick3[103]: x[103] + u[103] - r[103] <= 1
 mccormick3[104]: x[104] + u[104] - r[104] <= 1
 mccormick3[105]: x[105] + u[105] - r[105] <= 1
 mccormick3[106]: x[106] + u[106] - r[106] <= 1
 mccormick3[107]: x[107] + u[107] - r[107] <= 1
 mccormick3[108]: x[108] + u[108] - r[108] <= 1
 mccormick3[109]: x[109] + u[109] - r[109] <= 1
Bounds
Binaries
 x[0] x[1] x[2] x[3] x[4] x[5] x[6] x[7] x[8] x[9] x[10] x[11] x[12] x[13]
 x[14] x[15] x[16] x[17] x[18] x[19] x[20] x[21] x[22] x[23] x[24] x[25]
 x[26] x[27] x[28] x[29] x[30] x[31] x[32] x[33] x[34] x[35] x[36] x[37]
 x[38] x[39] x[40] x[41] x[42] x[43] x[44] x[45] x[46] x[47] x[48] x[49]
 x[50] x[51] x[52] x[53] x[54] x[55] x[56] x[57] x[58] x[59] x[60] x[61]
 x[62] x[63] x[64] x[65] x[66] x[67] x[68] x[69] x[70] x[71] x[72] x[73]
 x[74] x[75] x[76] x[77] x[78] x[79] x[80] x[81] x[82] x[83] x[84] x[85]
 x[86] x[87] x[88] x[89] x[90] x[91] x[92] x[93] x[94] x[95] x[96] x[97]
 x[98] x[99] x[100] x[101] x[102] x[103] x[104] x[105] x[106] x[107] x[108]
 x[109] u[0] u[1] u[2] u[3] u[4] u[5] u[6] u[7] u[8] u[9] u[10] u[11] u[12]
 u[13] u[14] u[15] u[16] u[17] u[18] u[19] u[20] u[21] u[22] u[23] u[24]
 u[25] u[26] u[27] u[28] u[29] u[30] u[31] u[32] u[33] u[34] u[35] u[36]
 u[37] u[38] u[39] u[40] u[41] u[42] u[43] u[44] u[45] u[46] u[47] u[48]
 u[49] u[50] u[51] u[52] u[53] u[54] u[55] u[56] u[57] u[58] u[59] u[60]
 u[61] u[62] u[63] u[64] u[65] u[66] u[67] u[68] u[69] u[70] u[71] u[72]
 u[73] u[74] u[75] u[76] u[77] u[78] u[79] u[80] u[81] u[82] u[83] u[84]
 u[85] u[86] u[87] u[88] u[89] u[90] u[91] u[92] u[93] u[94] u[95] u[96]
 u[97] u[98] u[99] u[100] u[101] u[102] u[103] u[104] u[105] u[106] u[107]
 u[108] u[109] r[0] r[1] r[2] r[3] r[4] r[5] r[6] r[7] r[8] r[9] r[10]
 r[11] r[12] r[13] r[14] r[15] r[16] r[17] r[18] r[19] r[20] r[21] r[22]
 r[23] r[24] r[25] r[26] r[27] r[28] r[29] r[30] r[31] r[32] r[33] r[34]
 r[35] r[36] r[37] r[38] r[39] r[40] r[41] r[42] r[43] r[44] r[45] r[46]
 r[47] r[48] r[49] r[50] r[51] r[52] r[53] r[54] r[55] r[56] r[57] r[58]
 r[59] r[60] r[61] r[62] r[63] r[64] r[65] r[66] r[67] r[68] r[69] r[70]
 r[71] r[72] r[73] r[74] r[75] r[76] r[77] r[78] r[79] r[80] r[81] r[82]
 r[83] r[84] r[85] r[86] r[87] r[88] r[89] r[90] r[91] r[92] r[93] r[94]
 r[95] r[96] r[97] r[98] r[99] r[100] r[101] r[102] r[103] r[104] r[105]
 r[106] r[107] r[108] r[109]
End
