instances/knapsack/discrete_knapsack_uncertainty/knapsack_110_9.kp
11743
110
503

8 0.8 9
57 5.7 1
83 8.3 19
52 5.2 35
45 4.5 72
18 1.8 80
58 5.8 4
60 6.0 90
2 0.2 69
27 2.7 45
32 3.2 94
24 2.4 2
61 6.1 86
65 6.5 53
81 8.1 42
57 5.7 75
30 3.0 65
73 7.3 69
30 3.0 49
63 6.3 32
6 0.6 76
92 9.2 90
33 3.3 59
11 1.1 67
53 5.3 8
37 3.7 93
27 2.7 79
24 2.4 10
86 8.6 61
96 9.6 59
26 2.6 76
24 2.4 79
88 8.8 63
26 2.6 14
29 2.9 46
82 8.2 68
69 6.9 76
37 3.7 2
5 0.5 45
87 8.7 62
44 4.4 79
10 1.0 56
83 8.3 4
26 2.6 98
88 8.8 57
55 5.5 90
98 9.8 27
70 7.0 19
32 3.2 43
5 0.5 88
55 5.5 62
69 6.9 85
22 2.2 94
61 6.1 44
77 7.7 83
24 2.4 1
34 3.4 21
39 3.9 87
45 4.5 95
39 3.9 78
17 1.7 19
27 2.7 13
4 0.4 40
27 2.7 44
64 6.4 33
13 1.3 4
89 8.9 56
39 3.9 100
5 0.5 19
30 3.0 60
74 7.4 44
66 6.6 62
67 6.7 84
8 0.8 36
96 9.6 57
1 0.1 81
99 9.9 81
96 9.6 40
29 2.9 91
71 7.1 94
50 5.0 62
94 9.4 9
51 5.1 76
2 0.2 49
94 9.4 40
90 9.0 51
16 1.6 29
57 5.7 94
39 3.9 63
16 1.6 21
1 0.1 65
69 6.9 96
57 5.7 20
76 7.6 19
61 6.1 75
2 0.2 29
82 8.2 56
81 8.1 99
61 6.1 47
49 4.9 79
10 1.0 67
5 0.5 32
59 5.9 29
9 0.9 76
54 5.4 54
83 8.3 30
40 4.0 29
59 5.9 99
83 8.3 81
78 7.8 75

81580
529

[4.303155583376727 1.3026301422255704 2.3769562184302755 0.9480078928404495 1.7931898014540095 0.83099722015585 0.6146173997133629 0.4939910258483081 2.6136556113851084 1.1687030048836997 4.501963176949054 3.9086553105850994 3.8855273754821056 2.5016981063056445 0.33730225307821626 1.4129491465720803 1.9731869166803273 2.4781059518702477 1.7636970833296932 1.5828883267257619 0.7601921620995522 0.035498373425051036 3.534154819665552 3.6359055378471052 4.0448669164219835 0.7523201976548235 1.5522215386337135 3.926065982652413 1.0900459037898713 0.34914643267361267 4.482520232205717 3.6376969254340445 0.9227425832520464 0.34909851357480504 3.6155845251740812 2.887156057453285 1.2182193068693659 4.127337636967755 1.4070711799796092 0.9554180263043356 3.9392342128987954 4.152679729679349 2.36873585452633 2.037064910736868 3.767635372123489 0.03561541012725131 3.2413776378192605 2.779612526483675 1.2428352112666332 3.1190294117126984 2.444912076900058 3.7743584187242125 2.1757378311492612 3.277976810461846 3.1319263516364892 0.005989945437628132 4.582467911616732 4.018107206309102 1.8223219336989873 4.1630691839170115 2.517660923818052 2.8105024944444774 2.068555816484702 3.0793671088305756 1.6424509191942744 4.473094289747184 1.7337420276625395 4.256945723049888 3.4197840043691734 1.1343017235026804 3.017254345963698 2.43901202908237 3.087002277243882 0.2209407244497361 2.29586115886585 4.07645320716545 0.33784323583789455 0.03772554118389957 1.5012077647291564 4.490443870783127 1.2254028692333874 3.9603956521424664 1.1202911228943222 3.2527045276274817 3.9292824182265385 3.800630972902311 3.7110712492207103 1.4789661407261896 3.8713871227679073 0.05896000499270192 1.5364370899724145 2.3368577862800324 0.23568738560699412 2.5087158351100216 1.8755650759759543 3.2689187781401 0.08713557541217425 2.2474984102101816 1.2691004681874505 4.003310535883473 2.797021209951114 3.326143031730738 2.3565024536598114 4.153493220824494 3.983801044462218 4.6971470970946445 3.713585683316751 3.1644999542020007 4.175902827087912 2.6960211919997388]

[93 69 19 32 97 83 50 57 26 19 61 56 33 97 14 66 10 69 26 51 6 89 65 76 66 37 91 49 19 100 75 61 45 70 41 22 69 62 97 16 24 79 59 95 84 96 3 51 48 17 76 65 18 77 70 25 6 20 53 59 22 36 61 32 61 49 74 80 41 91 31 55 43 84 61 78 20 40 54 72 27 31 48 91 67 99 49 13 19 52 6 38 50 17 21 38 6 10 21 29 58 17 55 65 62 47 56 8 92 78]
